
Gurobi 9.5.1 (linux64, gurobi_cl) logging started Tue Jan 31 12:43:08 2023

Set parameter Username
Set parameter TimeLimit to value 7200
Set parameter LogFile to value "./log/reopt_p2/problem2_15.log"
Set parameter Threads to value 1
Academic license - for non-commercial use only - expires 2023-07-13
Using license file /opt/gurobi951/linux64/gurobi.lic

Gurobi Optimizer version 9.5.1 build v9.5.1rc2 (linux64)
Copyright (c) 2022, Gurobi Optimization, LLC

Read MPS format model from file ./ins/reopt_p2/problem2_15.mps.mps.gz
Reading time = 2.35 seconds
problem_: 423618 rows, 1186734 columns, 2621790 nonzeros
Thread count: 112 physical cores, 224 logical processors, using up to 1 threads
Optimize a model with 423618 rows, 1186734 columns and 2621790 nonzeros
Model fingerprint: 0x830f8df3
Variable types: 0 continuous, 1186734 integer (1186734 binary)
Coefficient statistics:
  Matrix range     [2e-01, 2e+02]
  Objective range  [3e-01, 7e+01]
  Bounds range     [1e+00, 1e+00]
  RHS range        [1e+00, 1e+00]
Presolve removed 133 rows and 148 columns (presolve time = 5s) ...
Presolve removed 172 rows and 281 columns (presolve time = 11s) ...
Presolve removed 172 rows and 281 columns (presolve time = 278s) ...
Presolve removed 172 rows and 281 columns
Presolve time: 278.33s
Presolved: 423446 rows, 1186453 columns, 2621352 nonzeros
Variable types: 0 continuous, 1186453 integer (1186453 binary)
Found heuristic solution: objective 433816.36400

Root simplex log...

Iteration    Objective       Primal Inf.    Dual Inf.      Time
       0    2.7153932e+04   2.988000e+03   0.000000e+00    309s
    8044    3.8458281e+04   0.000000e+00   0.000000e+00    309s

Use crossover to convert LP symmetric solution to basic solution...

Root crossover log...

       0 DPushes remaining with DInf 0.0000000e+00               309s

       0 PPushes remaining with PInf 0.0000000e+00               309s

  Push phase complete: Pinf 0.0000000e+00, Dinf 3.2090570e-11    309s


Root simplex log...

Iteration    Objective       Primal Inf.    Dual Inf.      Time
    8750    3.8458281e+04   0.000000e+00   0.000000e+00    309s
    8750    3.8458281e+04   0.000000e+00   0.000000e+00    310s

Root relaxation: objective 3.845828e+04, 8750 iterations, 4.29 seconds (2.31 work units)

    Nodes    |    Current Node    |     Objective Bounds      |     Work
 Expl Unexpl |  Obj  Depth IntInf | Incumbent    BestBd   Gap | It/Node Time

     0     0 38458.2809    0 12707 433816.364 38458.2809  91.1%     -  332s
H    0     0                    243238.05000 38458.2809  84.2%     -  333s
     0     0 41855.4024    0 14594 243238.050 41855.4024  82.8%     -  400s
H    0     0                    240722.69800 41855.4024  82.6%     -  494s
     0     0 41859.7009    0 14638 240722.698 41859.7009  82.6%     -  558s
     0     0 45624.8064    0 34098 240722.698 45624.8064  81.0%     - 1674s
     0     0 45867.6456    0 27332 240722.698 45867.6456  80.9%     - 1932s
     0     0 45871.8313    0 22648 240722.698 45871.8313  80.9%     - 2015s
     0     0 45874.1985    0 23056 240722.698 45874.1985  80.9%     - 2025s
     0     0 45874.5912    0 23062 240722.698 45874.5912  80.9%     - 2028s
     0     0 47698.3094    0 77693 240722.698 47698.3094  80.2%     - 4245s
     0     0 48924.2041    0 127863 240722.698 48924.2041  79.7%     - 6623s
     0     0 49019.5071    0 78570 240722.698 49019.5071  79.6%     - 6939s
     0     0          -    0      240722.698 49019.5071  79.6%     - 7200s

Cutting planes:
  Gomory: 146
  Lift-and-project: 4
  Cover: 11167
  Clique: 4772
  MIR: 2887
  StrongCG: 1159

Explored 1 nodes (585803 simplex iterations) in 7200.10 seconds (5576.47 work units)
Thread count was 1 (of 224 available processors)

Solution count 3: 240723 243238 433816 

Time limit reached
Best objective 2.407226980000e+05, best bound 4.901950706948e+04, gap 79.6365%

Gurobi 10.0.2 (linux64) logging started Tue Sep  5 17:38:00 2023

Set parameter LogFile to value "../reopt_p2/problem2_15.log"
Set parameter TimeLimit to value 600
Gurobi Optimizer version 10.0.2 build v10.0.2rc0 (linux64)

CPU model: Intel(R) Xeon(R) Platinum 8280 CPU @ 2.70GHz, instruction set [SSE2|AVX|AVX2|AVX512]
Thread count: 112 physical cores, 112 logical processors, using up to 32 threads

Optimize a model with 423618 rows, 1186734 columns and 2621790 nonzeros
Model fingerprint: 0x830f8df3
Variable types: 0 continuous, 1186734 integer (1186734 binary)
Coefficient statistics:
  Matrix range     [2e-01, 2e+02]
  Objective range  [3e-01, 7e+01]
  Bounds range     [1e+00, 1e+00]
  RHS range        [1e+00, 1e+00]
Presolve removed 133 rows and 148 columns (presolve time = 5s) ...
Presolve removed 172 rows and 281 columns (presolve time = 10s) ...
Presolve removed 172 rows and 281 columns (presolve time = 15s) ...
Presolve removed 172 rows and 281 columns (presolve time = 384s) ...
Presolve removed 172 rows and 281 columns (presolve time = 385s) ...
Presolve removed 172 rows and 281 columns
Presolve time: 385.08s
Presolved: 423446 rows, 1186453 columns, 2621352 nonzeros
Variable types: 0 continuous, 1186453 integer (1186453 binary)
Found heuristic solution: objective 433816.36400
Deterministic concurrent LP optimizer: primal simplex, dual simplex, and barrier
Showing barrier log only...

Root barrier log...

Ordering time: 0.16s

Barrier statistics:
 AA' NZ     : 1.417e+06
 Factor NZ  : 3.770e+06 (roughly 60 MB of memory)
 Factor Ops : 7.118e+08 (less than 1 second per iteration)
 Threads    : 30

                  Objective                Residual
Iter       Primal          Dual         Primal    Dual     Compl     Time
   0   1.75684537e+06 -1.19746192e+07  3.65e+01 4.16e+00  1.23e+02   432s
   1   5.78182177e+05 -5.90174375e+06  1.07e+01 4.26e-14  3.27e+01   432s
   2   1.29103790e+05 -1.34836474e+06  1.24e+00 3.82e-14  4.46e+00   432s

Barrier performed 2 iterations in 431.79 seconds (169.70 work units)
Barrier solve interrupted - model solved by another algorithm

Concurrent spin time: 0.07s

Solved with dual simplex

Use crossover to convert LP symmetric solution to basic solution...

Root crossover log...

       0 DPushes remaining with DInf 0.0000000e+00               432s

       0 PPushes remaining with PInf 0.0000000e+00               432s

  Push phase complete: Pinf 0.0000000e+00, Dinf 3.2090570e-11    432s


Root simplex log...

Iteration    Objective       Primal Inf.    Dual Inf.      Time
    8750    3.8458281e+04   0.000000e+00   0.000000e+00    432s
    8750    3.8458281e+04   0.000000e+00   0.000000e+00    433s

Root relaxation: objective 3.845828e+04, 8750 iterations, 5.71 seconds (2.31 work units)
Total elapsed time = 435.80s

    Nodes    |    Current Node    |     Objective Bounds      |     Work
 Expl Unexpl |  Obj  Depth IntInf | Incumbent    BestBd   Gap | It/Node Time

     0     0 38458.2809    0 12707 433816.364 38458.2809  91.1%     -  589s
H    0     0                    243238.05000 38458.2809  84.2%     -  589s

Cutting planes:
  Cover: 12357

Explored 1 nodes (8750 simplex iterations) in 605.43 seconds (189.00 work units)
Thread count was 32 (of 112 available processors)

Solution count 2: 243238 433816 

Time limit reached
Best objective 2.432380500000e+05, best bound 3.845828091088e+04, gap 84.1890%

Gurobi 10.0.2 (linux64) logging started Wed Sep  6 11:19:10 2023

Set parameter LogFile to value "../reopt_p2/problem2_15.log"
Set parameter TimeLimit to value 600
Set parameter Threads to value 30
Gurobi Optimizer version 10.0.2 build v10.0.2rc0 (linux64)

CPU model: Intel(R) Xeon(R) Platinum 8280 CPU @ 2.70GHz, instruction set [SSE2|AVX|AVX2|AVX512]
Thread count: 112 physical cores, 112 logical processors, using up to 30 threads

Optimize a model with 423618 rows, 1186734 columns and 2621790 nonzeros
Model fingerprint: 0x830f8df3
Variable types: 0 continuous, 1186734 integer (1186734 binary)
Coefficient statistics:
  Matrix range     [2e-01, 2e+02]
  Objective range  [3e-01, 7e+01]
  Bounds range     [1e+00, 1e+00]
  RHS range        [1e+00, 1e+00]
Presolve removed 146 rows and 255 columns (presolve time = 5s) ...
Presolve removed 172 rows and 281 columns (presolve time = 137s) ...
Presolve removed 172 rows and 281 columns
Presolve time: 137.88s
Presolved: 423446 rows, 1186453 columns, 2621352 nonzeros
Variable types: 0 continuous, 1186453 integer (1186453 binary)
Found heuristic solution: objective 433816.36400
Deterministic concurrent LP optimizer: primal simplex, dual simplex, and barrier
Showing barrier log only...

Root barrier log...

Ordering time: 0.13s

Barrier statistics:
 AA' NZ     : 1.417e+06
 Factor NZ  : 3.770e+06 (roughly 60 MB of memory)
 Factor Ops : 7.118e+08 (less than 1 second per iteration)
 Threads    : 28

                  Objective                Residual
Iter       Primal          Dual         Primal    Dual     Compl     Time
   0   1.75684537e+06 -1.19746192e+07  3.65e+01 4.16e+00  1.23e+02   164s
   1   5.78182177e+05 -5.90174375e+06  1.07e+01 4.26e-14  3.27e+01   164s
   2   1.29103790e+05 -1.34836474e+06  1.24e+00 3.82e-14  4.46e+00   164s

Barrier performed 2 iterations in 163.99 seconds (169.70 work units)
Barrier solve interrupted - model solved by another algorithm

Concurrent spin time: 0.13s (can be avoided by choosing Method=3)

Solved with dual simplex

Use crossover to convert LP symmetric solution to basic solution...

Root crossover log...

       0 DPushes remaining with DInf 0.0000000e+00               164s

       0 PPushes remaining with PInf 0.0000000e+00               164s

  Push phase complete: Pinf 0.0000000e+00, Dinf 3.2090570e-11    164s


Root simplex log...

Iteration    Objective       Primal Inf.    Dual Inf.      Time
    8750    3.8458281e+04   0.000000e+00   0.000000e+00    164s
    8750    3.8458281e+04   0.000000e+00   0.000000e+00    165s

Root relaxation: objective 3.845828e+04, 8750 iterations, 3.82 seconds (2.31 work units)
Total elapsed time = 166.41s

    Nodes    |    Current Node    |     Objective Bounds      |     Work
 Expl Unexpl |  Obj  Depth IntInf | Incumbent    BestBd   Gap | It/Node Time

     0     0 38458.2809    0 12707 433816.364 38458.2809  91.1%     -  277s
H    0     0                    243238.05000 38458.2809  84.2%     -  277s
     0     0 41855.4024    0 14594 243238.050 41855.4024  82.8%     -  329s
H    0     0                    240549.33000 41855.4024  82.6%     -  415s
     0     0 41859.7009    0 14638 240549.330 41859.7009  82.6%     -  471s
     0     0          -    0      240549.330 41859.7009  82.6%     -  600s

Cutting planes:
  Gomory: 246
  Cover: 16153
  Clique: 5026
  MIR: 3459
  StrongCG: 3004

Explored 1 nodes (51417 simplex iterations) in 600.13 seconds (530.17 work units)
Thread count was 30 (of 112 available processors)

Solution count 3: 240549 243238 433816 

Time limit reached
Best objective 2.405493300000e+05, best bound 4.185970090240e+04, gap 82.5983%
